%%%%%%%%%%%%%%%%%%%%%%%%%%%%%%%%%%%%%%%%%%%%%%%%%%%%%%%%%%%%%%%%%%%%%%%%%
%FILE DATA:	Soccer Computational Problem for MiniZinc Models
%AUTHORS:	Robinson Duque, Alejandro Arbelaez, Juan Francisco Díaz
%CONTACT:  	robinson.duque@correounivalle.edu.co 
%LAST UPDATE:	May, 2018 
%ROUND ROBIN:2
%TEAMS:20
%PRESENT FIXTURE:25
%FIXTURES TO PLAY:13
%GAMES TO PLAY:130
%%%%%%%%%%%%%%%%%%%%%%%%%%%%%%%%%%%%%%%%%%%%%%%%%%%%%%%%%%%%%%%%%%%%%%%%%
%Number of teams:
n=20;

%For the purpose of our models, we offer two representations of the games to play, namely fixtures and games to play:

%Fixtures to play:
%fixtures=[|0,1,0,1,1,1,1,1,0,0,1,1,1,1,0,1,1,0,0,1
%|1,0,0,1,1,1,0,0,1,1,1,1,0,0,1,1,1,1,1,0
%|0,0,0,1,0,1,1,0,1,0,1,1,1,1,0,1,1,1,1,1
%|1,1,1,0,0,1,1,1,0,1,1,1,1,1,0,0,0,0,1,1
%|1,1,0,0,0,1,1,0,1,1,1,1,1,0,1,0,1,0,1,1
%|1,1,1,1,1,0,1,0,0,0,1,1,1,0,1,1,1,1,0,0
%|1,0,1,1,1,1,0,0,0,1,1,1,0,1,1,1,1,1,0,0
%|1,0,0,1,0,0,0,0,1,1,1,1,1,1,1,1,1,0,1,1
%|0,1,1,0,1,0,0,1,0,1,0,1,1,1,1,0,1,1,1,1
%|0,1,0,1,1,0,1,1,1,0,1,1,0,0,1,1,0,1,1,1
%|1,1,1,1,1,1,1,1,0,1,0,1,1,0,0,1,0,0,1,0
%|1,1,1,1,1,1,1,1,1,1,1,0,0,0,1,0,1,0,0,0
%|1,0,1,1,1,1,0,1,1,0,1,0,0,1,1,0,1,1,0,1
%|1,0,1,1,0,0,1,1,1,0,0,0,1,0,1,1,1,1,1,1
%|0,1,0,0,1,1,1,1,1,1,0,1,1,1,0,1,0,1,0,1
%|1,1,1,0,0,1,1,1,0,1,1,0,0,1,1,0,0,1,1,1
%|1,1,1,0,1,1,1,1,1,0,0,1,1,1,0,0,0,1,1,0
%|0,1,1,0,0,1,1,0,1,1,0,0,1,1,1,1,1,0,1,1
%|0,1,1,1,1,0,0,1,1,1,1,0,0,1,0,1,1,1,0,1
%|1,0,1,1,1,0,0,1,1,1,0,0,1,1,1,1,0,1,1,0|];

%Played Fixtures:
%PlayedFixtures=[|0,1,2,1,1,1,1,1,2,2,1,1,1,1,2,1,1,2,2,1
%|1,0,2,1,1,1,2,2,1,1,1,1,2,2,1,1,1,1,1,2
%|2,2,0,1,2,1,1,2,1,2,1,1,1,1,2,1,1,1,1,1
%|1,1,1,0,2,1,1,1,2,1,1,1,1,1,2,2,2,2,1,1
%|1,1,2,2,0,1,1,2,1,1,1,1,1,2,1,2,1,2,1,1
%|1,1,1,1,1,0,1,2,2,2,1,1,1,2,1,1,1,1,2,2
%|1,2,1,1,1,1,0,2,2,1,1,1,2,1,1,1,1,1,2,2
%|1,2,2,1,2,2,2,0,1,1,1,1,1,1,1,1,1,2,1,1
%|2,1,1,2,1,2,2,1,0,1,2,1,1,1,1,2,1,1,1,1
%|2,1,2,1,1,2,1,1,1,0,1,1,2,2,1,1,2,1,1,1
%|1,1,1,1,1,1,1,1,2,1,0,1,1,2,2,1,2,2,1,2
%|1,1,1,1,1,1,1,1,1,1,1,0,2,2,1,2,1,2,2,2
%|1,2,1,1,1,1,2,1,1,2,1,2,0,1,1,2,1,1,2,1
%|1,2,1,1,2,2,1,1,1,2,2,2,1,0,1,1,1,1,1,1
%|2,1,2,2,1,1,1,1,1,1,2,1,1,1,0,1,2,1,2,1
%|1,1,1,2,2,1,1,1,2,1,1,2,2,1,1,0,2,1,1,1
%|1,1,1,2,1,1,1,1,1,2,2,1,1,1,2,2,0,1,1,2
%|2,1,1,2,2,1,1,2,1,1,2,2,1,1,1,1,1,0,1,1
%|2,1,1,1,1,2,2,1,1,1,1,2,2,1,2,1,1,1,0,1
%|1,2,1,1,1,2,2,1,1,1,2,2,1,1,1,1,2,1,1,0|];

%Games to play:
games=[|2,1|4,1|4,2|4,3|5,1|5,2|6,1|6,2|6,3|6,4|6,5|7,1|7,3|7,4|7,5|7,6|8,1|8,4|9,2|9,3|9,5|9,8|10,2|10,4|10,5|10,7|10,8|10,9|11,1|11,2|11,3|11,4|11,5|11,6|11,7|11,8|11,10|12,1|12,2|12,3|12,4|12,5|12,6|12,7|12,8|12,9|12,10|12,11|13,1|13,3|13,4|13,5|13,6|13,8|13,9|13,11|14,1|14,3|14,4|14,7|14,8|14,9|14,13|15,2|15,5|15,6|15,7|15,8|15,9|15,10|15,12|15,13|15,14|16,1|16,2|16,3|16,6|16,7|16,8|16,10|16,11|16,14|16,15|17,1|17,2|17,3|17,5|17,6|17,7|17,8|17,9|17,12|17,13|17,14|18,2|18,3|18,6|18,7|18,9|18,10|18,13|18,14|18,15|18,16|18,17|19,2|19,3|19,4|19,5|19,8|19,9|19,10|19,11|19,14|19,16|19,17|19,18|20,1|20,3|20,4|20,5|20,8|20,9|20,10|20,13|20,14|20,15|20,16|20,18|20,19|];

%Played Games:
%PlayedGames=[|2,1|3,1|3,1|3,2|3,2|4,1|4,2|4,3|5,1|5,2|5,3|5,3|5,4|5,4|6,1|6,2|6,3|6,4|6,5|7,1|7,2|7,2|7,3|7,4|7,5|7,6|8,1|8,2|8,2|8,3|8,3|8,4|8,5|8,5|8,6|8,6|8,7|8,7|9,1|9,1|9,2|9,3|9,4|9,4|9,5|9,6|9,6|9,7|9,7|9,8|10,1|10,1|10,2|10,3|10,3|10,4|10,5|10,6|10,6|10,7|10,8|10,9|11,1|11,2|11,3|11,4|11,5|11,6|11,7|11,8|11,9|11,9|11,10|12,1|12,2|12,3|12,4|12,5|12,6|12,7|12,8|12,9|12,10|12,11|13,1|13,2|13,2|13,3|13,4|13,5|13,6|13,7|13,7|13,8|13,9|13,10|13,10|13,11|13,12|13,12|14,1|14,2|14,2|14,3|14,4|14,5|14,5|14,6|14,6|14,7|14,8|14,9|14,10|14,10|14,11|14,11|14,12|14,12|14,13|15,1|15,1|15,2|15,3|15,3|15,4|15,4|15,5|15,6|15,7|15,8|15,9|15,10|15,11|15,11|15,12|15,13|15,14|16,1|16,2|16,3|16,4|16,4|16,5|16,5|16,6|16,7|16,8|16,9|16,9|16,10|16,11|16,12|16,12|16,13|16,13|16,14|16,15|17,1|17,2|17,3|17,4|17,4|17,5|17,6|17,7|17,8|17,9|17,10|17,10|17,11|17,11|17,12|17,13|17,14|17,15|17,15|17,16|17,16|18,1|18,1|18,2|18,3|18,4|18,4|18,5|18,5|18,6|18,7|18,8|18,8|18,9|18,10|18,11|18,11|18,12|18,12|18,13|18,14|18,15|18,16|18,17|19,1|19,1|19,2|19,3|19,4|19,5|19,6|19,6|19,7|19,7|19,8|19,9|19,10|19,11|19,12|19,12|19,13|19,13|19,14|19,15|19,15|19,16|19,17|19,18|20,1|20,2|20,2|20,3|20,4|20,5|20,6|20,6|20,7|20,7|20,8|20,9|20,10|20,11|20,11|20,12|20,12|20,13|20,14|20,15|20,16|20,17|20,17|20,18|20,19|];

%Played Games - Win Results:
%% 0  1  0  0  1  1  0  1  0  0  0  0  0  0  1  0  0  1  0  0
%% 0  0  0  0  0  0  0  0  0  0  0  0  0  0  0  0  0  0  0  0
%% 0  0  0  0  0  0  0  0  0  0  0  0  0  1  0  0  0  0  0  0
%% 0  0  1  0  0  0  0  1  0  1  0  0  0  0  2  0  0  2  0  0
%% 0  0  0  0  0  0  0  0  1  0  0  0  0  0  0  0  0  0  0  0
%% 0  0  1  0  1  0  1  0  0  0  0  0  0  0  0  0  0  0  0  0
%% 0  0  0  0  0  0  0  0  0  0  0  0  0  0  0  0  0  0  0  0
%% 0  0  0  0  0  0  0  0  0  0  0  0  0  0  0  0  0  0  0  1
%% 0  0  0  0  0  0  0  0  0  0  0  0  0  0  0  0  0  0  0  0
%% 0  1  0  0  1  0  0  0  1  0  0  0  0  0  0  0  0  0  0  1
%% 1  0  0  1  0  0  1  1  0  1  0  0  1  0  0  0  0  2  0  0
%% 1  0  1  0  0  0  1  0  1  1  0  0  0  0  0  0  0  2  2  0
%% 0  0  0  0  1  1  0  1  0  0  0  0  0  0  1  0  0  1  2  1
%% 0  0  0  0  0  0  0  0  0  0  0  0  0  0  0  0  0  0  0  0
%% 0  0  0  0  0  1  0  0  0  0  0  0  0  1  0  0  0  0  2  1
%% 1  1  0  1  0  0  0  1  0  1  1  2  2  0  0  0  0  1  0  0
%% 1  1  1  2  0  1  1  1  0  0  2  0  0  0  0  2  0  1  0  0
%% 0  0  0  0  0  1  0  0  0  1  0  0  0  0  0  0  0  0  0  1
%% 0  1  1  0  0  0  0  0  0  0  0  0  0  1  0  0  0  0  0  0
%% 0  0  0  0  0  0  0  0  0  0  0  0  0  1  0  0  0  0  0  0
%Played Games - Tie Results:
%% 0  0  2  1  0  0  1  0  2  2  0  0  1  1  1  0  0  1  2  1
%% 0  0  2  1  1  1  2  2  1  0  1  1  2  2  1  0  0  1  0  2
%% 2  2  0  0  2  0  1  2  1  2  1  0  1  0  2  1  0  1  0  1
%% 1  1  0  0  2  1  1  0  2  0  0  1  1  1  0  1  0  0  1  1
%% 0  1  2  2  0  0  1  2  0  0  1  1  0  2  1  2  1  2  1  1
%% 0  1  0  1  0  0  0  2  2  2  1  1  0  2  0  1  0  0  2  2
%% 1  2  1  1  1  0  0  2  2  1  0  0  2  1  1  1  0  1  2  2
%% 0  2  2  0  2  2  2  0  1  1  0  1  0  1  1  0  0  2  1  0
%% 2  1  1  2  0  2  2  1  0  0  2  0  1  1  1  2  1  1  1  1
%% 2  0  2  0  0  2  1  1  0  0  0  0  2  2  1  0  2  0  1  0
%% 0  1  1  0  1  1  0  0  2  0  0  1  0  2  2  0  0  0  1  2
%% 0  1  0  1  1  1  0  1  0  0  1  0  2  2  1  0  1  0  0  2
%% 1  2  1  1  0  0  2  0  1  2  0  2  0  1  0  0  1  0  0  0
%% 1  2  0  1  2  2  1  1  1  2  2  2  1  0  0  1  1  1  0  0
%% 1  1  2  0  1  0  1  1  1  1  2  1  0  0  0  1  2  1  0  0
%% 0  0  1  1  2  1  1  0  2  0  0  0  0  1  1  0  0  0  1  1
%% 0  0  0  0  1  0  0  0  1  2  0  1  1  1  2  0  0  0  1  2
%% 1  1  1  0  2  0  1  2  1  0  0  0  0  1  1  0  0  0  1  0
%% 2  0  0  1  1  2  2  1  1  1  1  0  0  0  0  1  1  1  0  1
%% 1  2  1  1  1  2  2  0  1  0  2  2  0  0  0  1  2  0  1  0
%Played Games - Lose Results:
%% 0  0  0  0  0  0  0  0  0  0  1  1  0  0  0  1  1  0  0  0
%% 1  0  0  0  0  0  0  0  0  1  0  0  0  0  0  1  1  0  1  0
%% 0  0  0  1  0  1  0  0  0  0  0  1  0  0  0  0  1  0  1  0
%% 0  0  0  0  0  0  0  0  0  0  1  0  0  0  0  1  2  0  0  0
%% 1  0  0  0  0  1  0  0  0  1  0  0  1  0  0  0  0  0  0  0
%% 1  0  0  0  0  0  0  0  0  0  0  0  1  0  1  0  1  1  0  0
%% 0  0  0  0  0  1  0  0  0  0  1  1  0  0  0  0  1  0  0  0
%% 1  0  0  1  0  0  0  0  0  0  1  0  1  0  0  1  1  0  0  0
%% 0  0  0  0  1  0  0  0  0  1  0  1  0  0  0  0  0  0  0  0
%% 0  0  0  1  0  0  0  0  0  0  1  1  0  0  0  1  0  1  0  0
%% 0  0  0  0  0  0  0  0  0  0  0  0  0  0  0  1  2  0  0  0
%% 0  0  0  0  0  0  0  0  0  0  0  0  0  0  0  2  0  0  0  0
%% 0  0  0  0  0  0  0  0  0  0  1  0  0  0  0  2  0  0  0  0
%% 0  0  1  0  0  0  0  0  0  0  0  0  0  0  1  0  0  0  1  1
%% 1  0  0  2  0  0  0  0  0  0  0  0  1  0  0  0  0  0  0  0
%% 0  0  0  0  0  0  0  0  0  0  0  0  0  0  0  0  2  0  0  0
%% 0  0  0  0  0  0  0  0  0  0  0  0  0  0  0  0  0  0  0  0
%% 1  0  0  2  0  0  0  0  0  0  2  2  1  0  0  1  1  0  0  0
%% 0  0  0  0  0  0  0  0  0  0  0  2  2  0  2  0  0  0  0  0
%% 0  0  0  0  0  0  0  1  0  1  0  0  1  0  1  0  0  1  0  0

%%Initial points:
iPoints=[33, 20, 22, 35, 23, 26, 21, 21, 22, 28, 38, 41, 38, 21, 31, 45, 51, 21, 25, 22];

%%Initial positions:
%iPositions=[7, 20, 15, 6, 12, 10, 19, 18, 14, 9, 5, 3, 4, 17, 8, 2, 1, 16, 11, 13];

%%Position Constraints:
%numberPositionConstraints=1;

%%Total Fixtures:
%totalFixtures=38;

%%Fixtures to Play:
%fixturesToPlay=13;

%%Position Constraints Built With
%wantedPoints=[1, 1, 1, 3, 3, 1, 1, 0, 1, 0, 3, 0, 0, 0, 1, 1, 3, 1, 0, 3, 0, 3, 0, 0, 1, 3, 1, 0, 0, 1, 3, 3, 3, 3, 0, 3, 3, 3, 1, 3, 0, 1, 1, 1, 3, 1, 0, 0, 1, 3, 3, 1, 1, 1, 0, 1, 0, 0, 1, 3, 1, 0, 0, 3, 3, 0, 1, 0, 0, 1, 3, 1, 0, 3, 3, 3, 3, 1, 1, 1, 1, 1, 0, 1, 0, 3, 0, 1, 3, 1, 3, 3, 3, 1, 1, 0, 0, 3, 1, 1, 3, 3, 3, 1, 0, 1, 0, 0, 1, 1, 1, 0, 0, 1, 3, 1, 1, 1, 1, 3, 3, 3, 0, 3, 1, 1, 3, 1, 1, 0];

%%Probabilities:
probabilities=[|1,9,0,90,|48,14,0,38,|17,67,0,16,|10,12,0,78,|33,24,0,43,|0,12,0,88,|68,20,0,12,|75,18,0,7,|71,5,0,24,|79,11,0,10,|12,63,0,25,|30,23,0,47,|29,37,0,34,|50,6,0,44,|13,75,0,12,|42,32,0,26,|7,10,0,83,|37,59,0,4,|31,19,0,50,|63,22,0,15,|94,1,0,5,|5,46,0,49,|11,84,0,5,|62,2,0,36,|97,0,0,3,|58,12,0,30,|36,27,0,37,|44,48,0,8,|27,48,0,25,|36,51,0,13,|97,0,0,3,|88,1,0,11,|19,11,0,70,|87,8,0,5,|61,16,0,23,|86,7,0,7,|96,2,0,2,|8,4,0,88,|75,0,0,25,|83,12,0,5,|70,17,0,13,|26,73,0,1,|65,4,0,31,|88,9,0,3,|32,58,0,10,|21,49,0,30,|99,1,0,0,|37,42,0,21,|71,11,0,18,|60,16,0,24,|2,28,0,70,|61,16,0,23,|95,4,0,1,|89,0,0,11,|64,0,0,36,|75,3,0,22,|32,44,0,24,|93,6,0,1,|19,8,0,73,|40,54,0,6,|31,31,0,38,|3,93,0,4,|1,20,0,79,|64,7,0,29,|23,41,0,36,|32,66,0,2,|86,12,0,2,|6,38,0,56,|68,10,0,22,|16,45,0,39,|44,36,0,20,|95,4,0,1,|31,27,0,42,|8,10,0,82,|80,10,0,10,|5,27,0,68,|29,6,0,65,|6,67,0,27,|68,3,0,29,|67,28,0,5,|16,29,0,55,|46,32,0,22,|89,1,0,10,|8,37,0,55,|54,27,0,19,|72,15,0,13,|88,3,0,9,|35,61,0,4,|91,4,0,5,|94,4,0,2,|16,0,0,84,|39,37,0,24,|56,18,0,26,|58,5,0,37,|13,37,0,50,|48,17,0,35,|52,13,0,35,|92,8,0,0,|75,12,0,13,|9,0,0,91,|11,57,0,32,|74,14,0,12,|21,23,0,56,|97,3,0,0,|74,18,0,8,|69,0,0,31,|34,7,0,59,|2,32,0,66,|71,22,0,7,|25,72,0,3,|6,43,0,51,|18,22,0,60,|9,67,0,24,|56,7,0,37,|29,19,0,52,|10,42,0,48,|54,22,0,24,|87,13,0,0,|57,4,0,39,|33,63,0,4,|37,43,0,20,|38,61,0,1,|48,51,0,1,|79,14,0,7,|96,3,0,1,|52,19,0,29,|98,2,0,0,|82,5,0,13,|43,56,0,1,|79,1,0,20,|];


%POSITION CONSTRAINTS
%%[|teamID, operator, position|...]
%%operators index:
%%%1 for =  operator
%%%2 for >  operator
%%%3 for >= operator
%%%4 for <  operator
%%%5 for <= operator

positionConstraints=[|5,1,15|];

%SCORE VECTOR CONSTRAINTS
%%[|teamID, operator, wantedPoints|...]
%%operators index:
%%%1 for =  operator
%%%2 for >  operator
%%%3 for >= operator
%%%4 for <  operator
%%%5 for <= operator

%scoreVectorConstraints=[|5,1,38|];

%Instance Features:
%features=T,FP,TF,C,C/T,C/TF,FP/TF,FP/T,FP*C/T,FP*T/C,(C/T)*(FP/TF),Distance,Distance/C,Distance/T,Distance/(C*T)
%values=20,13,38,1,0.05,0.02631578947368421,0.3421052631578947,0.65,0.65,260.0,0.01710526315789474,3,3.0,0.15,0.15



